%%% static parameters %%%
timespan = 1;
Clients_N = [4000];
Demand_W = [15];
Lt0 = [4];
Lt1 = [4];
SS_ = [0.85];
DS_D = [20];
K = [200];
MA = [500];
HC = [0.05];
%%% dynamic parameters %%%
lost_ratio_sales_ret_th = 0.0004759587915028475;
lost_ratio_sales_ret_w = 51;
lost_ratio_sales_dis_th = 7.301361553915742e-05;
lost_ratio_sales_dis_w = 96;
lost_ratio_sales_fac_th = 0.0003181091490393192;
lost_ratio_sales_fac_w = 17;
stock_customer_MA_mean_relative_th = 0.3004697013611617;
stock_customer_MA_mean_relative_w = 61;
stock_distributor_MA_mean_relative_th = 0.6820254248123946;
stock_distributor_MA_mean_relative_w = 30;
stock_retailer_MA_mean_relative_th = 0.2857393438402578;
stock_retailer_MA_mean_relative_w = 29;
stock_factory_MA_mean_relative_th = 0.20050965795578568;
stock_factory_MA_mean_relative_w = 24;
